(declare-const a Real)
(declare-const b Real)
(declare-const c Real)
(assert (= (+ a b c) 3))
(assert (> a 0))
(assert (> b 0))
(assert (> c 0))
(assert (not (<= (+ (* (pow (+ (* 729 c (pow (+ a b) 2)) (* 245760 (pow b 3) (pow c 2)) (* 344064 (pow a 2) (pow b 3)) (* 344064 (pow b 2) (pow c 3))) -1) (pow (+ (* 729 c (pow (+ a b) 3)) (* 245760 (pow b 3) (pow c 2)) (* 344064 (pow a 2) (pow b 3)) (* 344064 (pow b 2) (pow c 3))) 2)) (* -1130496 a (pow c 4)) (* -1130496 b (pow a 4)) (* -1072680 c (pow b 4)) (* -376832 a (pow b 4)) (* -376832 b (pow c 4)) (* -344064 (pow a 2) (pow c 3)) (* -344064 (pow a 3) (pow b 2)) (* -319016 c (pow a 4)) (* 933888 (pow a 3) (pow c 2)) (* 917504 a b (pow c 3)) (* 1148768 a c (pow b 3)) (* 1148768 b c (pow a 3))) 0)))
(check-sat)
(get-model)
(exit)